Route #1: 321 322 323 324 325 326 327 260 261 328 329 330 331 332 333 334 335 336 337 338 339
Route #2: 340 341 342 343 344 345 346 277 278 347 348 349 350 351 352 353 354 355 356 357 358
Route #3: 359 360 361 362 363 364 365 294 295 366 367 368 369 370 371 372 373 374 375 376 377
Route #4: 378 379 380 381 382 383 384 311 312 385 386 387 388 389 390 391 392 393 394 395 396
Route #5: 193 253 254 255 256 257 258 259 200 262 263 264 265 266 267 268 269 207
Route #6: 208 270 271 272 273 274 275 276 215 279 280 281 282 283 284 285 286 222
Route #7: 223 287 288 289 290 291 292 293 230 296 297 298 299 300 301 302 303 237
Route #8: 238 304 305 306 307 308 309 310 245 313 314 315 316 317 318 319 320 252
Route #9: 142 194 195 196 197 146 147 198 199 201 202 203 204 205 206 152
Route #10: 155 209 210 211 212 159 160 213 214 216 217 218 219 220 221 165
Route #11: 168 224 225 226 227 172 173 228 229 231 232 233 234 235 236 178
Route #12: 181 239 240 241 242 185 186 243 244 246 247 248 249 250 251 191
Route #13: 99 143 144 145 102 148 149 150 151 100 101 103 104
Route #14: 110 156 157 158 113 161 162 163 164 111 112 114 115
Route #15: 121 169 170 171 124 174 175 176 177 122 123 125 126
Route #16: 132 182 183 184 135 187 188 189 190 133 134 136 137
Route #17: 63 64 65 66 105 106 107 153 154 108 109
Route #18: 72 73 74 75 116 117 118 166 167 119 120
Route #19: 81 82 83 84 127 128 129 179 180 130 131
Route #20: 62 98 97 141 192 140 91 92 93 138 139
Route #21: 35 36 67 68 69 70 71 41
Route #22: 42 43 76 77 78 79 80 48
Route #23: 88 89 90 57 94 95 96 61 33
Route #24: 52 51 49 50 85 86 87 53
Route #25: 14 34 15 37 38 39 40
Route #26: 19 20 44 45 46 47
Route #27: 28 54 55 56 58 59 60
Route #28: 23 24 25 26 27
Route #29: 29 30 31 32 13
Route #30: 2 16 17 18
Route #31: 5 21 22 6
Route #32: 7 8 9
Route #33: 10 11 12
Route #34: 1 3 4
Cost 1488.3414092165804